63
1 0 40
2 0 3
2 1 3
3 0 32
3 1 6
3 2 22
4 0 24
4 1 33
4 2 13
4 3 21
5 0 17
5 1 43
5 2 1
5 3 39
5 4 14
6 0 42
6 1 22
6 2 26
6 3 1
6 4 2
6 5 4
7 0 34
7 1 36
7 2 32
7 3 11
7 4 15
7 5 35
7 6 28
8 0 42
8 1 28
8 2 40
8 3 40
8 4 26
8 5 4
8 6 42
8 7 28
9 0 28
9 1 29
9 2 16
9 3 42
9 4 43
9 5 20
9 6 43
9 7 44
9 8 40
10 0 22
10 1 26
10 2 44
10 3 15
10 4 36
10 5 9
10 6 29
10 7 26
10 8 4
10 9 11
11 0 21
11 1 28
11 2 41
11 3 44
11 4 23
11 5 40
11 6 41
11 7 13
11 8 45
11 9 6
11 10 21
12 0 6
12 1 32
12 2 24
12 3 9
12 4 29
12 5 34
12 6 17
12 7 33
12 8 24
12 9 32
12 10 39
12 11 36
13 0 12
13 1 40
13 2 41
13 3 43
13 4 13
13 5 41
13 6 44
13 7 36
13 8 3
13 9 32
13 10 17
13 11 4
13 12 41
14 0 39
14 1 22
14 2 37
14 3 39
14 4 1
14 5 35
14 6 7
14 7 44
14 8 7
14 9 32
14 10 7
14 11 26
14 12 34
14 13 41
15 0 42
15 1 1
15 2 41
15 3 7
15 4 26
15 5 15
15 6 8
15 7 39
15 8 13
15 9 40
15 10 34
15 11 24
15 12 41
15 13 22
15 14 10
16 0 42
16 1 36
16 2 43
16 3 32
16 4 12
16 5 15
16 6 5
16 7 19
16 8 18
16 9 6
16 10 11
16 11 11
16 12 6
16 13 18
16 14 1
16 15 2
17 0 36
17 1 32
17 2 16
17 3 21
17 4 36
17 5 38
17 6 12
17 7 23
17 8 3
17 9 41
17 10 45
17 11 21
17 12 11
17 13 4
17 14 20
17 15 25
17 16 8
18 0 33
18 1 26
18 2 24
18 3 4
18 4 22
18 5 8
18 6 12
18 7 27
18 8 3
18 9 15
18 10 40
18 11 2
18 12 16
18 13 21
18 14 37
18 15 15
18 16 13
18 17 27
19 0 9
19 1 41
19 2 27
19 3 19
19 4 19
19 5 30
19 6 22
19 7 19
19 8 13
19 9 40
19 10 18
19 11 30
19 12 36
19 13 25
19 14 3
19 15 22
19 16 2
19 17 27
19 18 6
20 0 3
20 1 31
20 2 40
20 3 43
20 4 18
20 5 19
20 6 5
20 7 27
20 8 17
20 9 7
20 10 43
20 11 5
20 12 3
20 13 17
20 14 36
20 15 21
20 16 1
20 17 40
20 18 12
20 19 36
21 0 31
21 1 11
21 2 13
21 3 41
21 4 36
21 5 5
21 6 15
21 7 1
21 8 32
21 9 39
21 10 5
21 11 25
21 12 37
21 13 30
21 14 35
21 15 37
21 16 20
21 17 7
21 18 26
21 19 27
21 20 11
22 0 27
22 1 23
22 2 28
22 3 25
22 4 24
22 5 8
22 6 12
22 7 20
22 8 2
22 9 7
22 10 22
22 11 16
22 12 30
22 13 18
22 14 14
22 15 33
22 16 26
22 17 31
22 18 28
22 19 38
22 20 2
22 21 43
23 0 2
23 1 29
23 2 29
23 3 3
23 4 16
23 5 27
23 6 5
23 7 18
23 8 12
23 9 36
23 10 35
23 11 13
23 12 35
23 13 23
23 14 45
23 15 11
23 16 34
23 17 12
23 18 36
23 19 17
23 20 33
23 21 6
23 22 38
24 0 22
24 1 32
24 2 26
24 3 27
24 4 37
24 5 9
24 6 6
24 7 37
24 8 24
24 9 32
24 10 2
24 11 8
24 12 39
24 13 26
24 14 9
24 15 26
24 16 19
24 17 31
24 18 4
24 19 8
24 20 11
24 21 37
24 22 2
24 23 26
25 0 40
25 1 10
25 2 22
25 3 24
25 4 43
25 5 34
25 6 1
25 7 37
25 8 14
25 9 4
25 10 39
25 11 37
25 12 13
25 13 12
25 14 31
25 15 13
25 16 21
25 17 1
25 18 4
25 19 29
25 20 39
25 21 20
25 22 42
25 23 40
25 24 26
26 0 34
26 1 32
26 2 29
26 3 10
26 4 39
26 5 12
26 6 12
26 7 37
26 8 11
26 9 31
26 10 32
26 11 44
26 12 32
26 13 23
26 14 39
26 15 8
26 16 5
26 17 36
26 18 25
26 19 40
26 20 44
26 21 28
26 22 44
26 23 39
26 24 22
26 25 17
27 0 35
27 1 18
27 2 25
27 3 4
27 4 45
27 5 43
27 6 37
27 7 43
27 8 9
27 9 41
27 10 24
27 11 15
27 12 37
27 13 34
27 14 10
27 15 7
27 16 25
27 17 38
27 18 4
27 19 28
27 20 12
27 21 12
27 22 35
27 23 13
27 24 27
27 25 5
27 26 39
28 0 7
28 1 25
28 2 15
28 3 15
28 4 17
28 5 20
28 6 30
28 7 39
28 8 26
28 9 8
28 10 45
28 11 16
28 12 42
28 13 26
28 14 11
28 15 32
28 16 27
28 17 23
28 18 25
28 19 5
28 20 2
28 21 35
28 22 13
28 23 27
28 24 10
28 25 40
28 26 29
28 27 43
29 0 8
29 1 37
29 2 2
29 3 24
29 4 39
29 5 23
29 6 12
29 7 8
29 8 23
29 9 13
29 10 36
29 11 7
29 12 8
29 13 27
29 14 33
29 15 28
29 16 34
29 17 41
29 18 17
29 19 4
29 20 39
29 21 30
29 22 16
29 23 1
29 24 23
29 25 2
29 26 32
29 27 29
29 28 4
30 0 43
30 1 21
30 2 7
30 3 18
30 4 37
30 5 32
30 6 9
30 7 34
30 8 33
30 9 41
30 10 26
30 11 13
30 12 14
30 13 7
30 14 41
30 15 31
30 16 4
30 17 33
30 18 13
30 19 30
30 20 20
30 21 41
30 22 40
30 23 20
30 24 20
30 25 36
30 26 44
30 27 45
30 28 39
30 29 8
31 0 6
31 1 2
31 2 25
31 3 7
31 4 7
31 5 2
31 6 27
31 7 5
31 8 24
31 9 23
31 10 12
31 11 23
31 12 38
31 13 21
31 14 26
31 15 16
31 16 37
31 17 3
31 18 33
31 19 24
31 20 6
31 21 10
31 22 5
31 23 2
31 24 24
31 25 16
31 26 17
31 27 4
31 28 21
31 29 8
31 30 4
32 0 29
32 1 43
32 2 9
32 3 18
32 4 23
32 5 30
32 6 30
32 7 9
32 8 19
32 9 4
32 10 24
32 11 39
32 12 25
32 13 26
32 14 13
32 15 40
32 16 22
32 17 22
32 18 25
32 19 24
32 20 24
32 21 30
32 22 20
32 23 9
32 24 32
32 25 11
32 26 19
32 27 7
32 28 12
32 29 5
32 30 12
32 31 27
33 0 7
33 1 39
33 2 2
33 3 20
33 4 42
33 5 41
33 6 14
33 7 18
33 8 7
33 9 7
33 10 7
33 11 33
33 12 39
33 13 17
33 14 22
33 15 19
33 16 13
33 17 5
33 18 42
33 19 3
33 20 17
33 21 36
33 22 44
33 23 6
33 24 37
33 25 33
33 26 26
33 27 6
33 28 11
33 29 18
33 30 8
33 31 44
33 32 40
34 0 41
34 1 26
34 2 26
34 3 22
34 4 17
34 5 33
34 6 13
34 7 13
34 8 14
34 9 38
34 10 6
34 11 35
34 12 23
34 13 27
34 14 15
34 15 11
34 16 3
34 17 23
34 18 8
34 19 40
34 20 24
34 21 9
34 22 41
34 23 12
34 24 37
34 25 38
34 26 7
34 27 1
34 28 11
34 29 26
34 30 9
34 31 18
34 32 10
34 33 26
35 0 10
35 1 8
35 2 21
35 3 24
35 4 2
35 5 23
35 6 2
35 7 13
35 8 2
35 9 13
35 10 22
35 11 2
35 12 23
35 13 33
35 14 31
35 15 22
35 16 25
35 17 20
35 18 23
35 19 23
35 20 43
35 21 9
35 22 8
35 23 28
35 24 45
35 25 39
35 26 33
35 27 6
35 28 10
35 29 35
35 30 31
35 31 27
35 32 2
35 33 43
35 34 4
36 0 14
36 1 21
36 2 11
36 3 26
36 4 25
36 5 37
36 6 9
36 7 37
36 8 11
36 9 9
36 10 14
36 11 36
36 12 42
36 13 21
36 14 45
36 15 38
36 16 12
36 17 30
36 18 6
36 19 40
36 20 32
36 21 13
36 22 20
36 23 31
36 24 27
36 25 30
36 26 33
36 27 24
36 28 14
36 29 25
36 30 2
36 31 15
36 32 39
36 33 33
36 34 39
36 35 14
37 0 16
37 1 41
37 2 12
37 3 27
37 4 39
37 5 26
37 6 31
37 7 17
37 8 1
37 9 16
37 10 10
37 11 26
37 12 8
37 13 5
37 14 6
37 15 7
37 16 29
37 17 41
37 18 42
37 19 19
37 20 4
37 21 22
37 22 39
37 23 42
37 24 22
37 25 37
37 26 42
37 27 9
37 28 14
37 29 42
37 30 40
37 31 29
37 32 45
37 33 18
37 34 20
37 35 11
37 36 42
38 0 24
38 1 3
38 2 15
38 3 11
38 4 26
38 5 34
38 6 23
38 7 13
38 8 30
38 9 43
38 10 43
38 11 30
38 12 38
38 13 12
38 14 14
38 15 3
38 16 29
38 17 30
38 18 40
38 19 12
38 20 3
38 21 30
38 22 6
38 23 7
38 24 41
38 25 4
38 26 25
38 27 33
38 28 35
38 29 42
38 30 1
38 31 42
38 32 10
38 33 5
38 34 2
38 35 19
38 36 42
38 37 15
39 0 32
39 1 10
39 2 31
39 3 7
39 4 31
39 5 3
39 6 32
39 7 9
39 8 21
39 9 29
39 10 32
39 11 37
39 12 26
39 13 11
39 14 20
39 15 40
39 16 37
39 17 30
39 18 32
39 19 30
39 20 11
39 21 37
39 22 21
39 23 15
39 24 38
39 25 5
39 26 36
39 27 11
39 28 1
39 29 43
39 30 20
39 31 38
39 32 14
39 33 15
39 34 7
39 35 17
39 36 36
39 37 5
39 38 21
40 0 25
40 1 21
40 2 29
40 3 25
40 4 13
40 5 14
40 6 32
40 7 22
40 8 5
40 9 32
40 10 36
40 11 19
40 12 18
40 13 38
40 14 33
40 15 28
40 16 41
40 17 36
40 18 22
40 19 1
40 20 36
40 21 30
40 22 2
40 23 44
40 24 28
40 25 2
40 26 35
40 27 16
40 28 15
40 29 22
40 30 20
40 31 5
40 32 13
40 33 41
40 34 38
40 35 44
40 36 22
40 37 41
40 38 32
40 39 43
41 0 35
41 1 34
41 2 23
41 3 30
41 4 36
41 5 3
41 6 11
41 7 32
41 8 31
41 9 42
41 10 3
41 11 42
41 12 2
41 13 36
41 14 29
41 15 38
41 16 25
41 17 44
41 18 36
41 19 22
41 20 4
41 21 16
41 22 3
41 23 10
41 24 33
41 25 5
41 26 2
41 27 19
41 28 19
41 29 29
41 30 12
41 31 20
41 32 21
41 33 1
41 34 38
41 35 17
41 36 11
41 37 35
41 38 29
41 39 7
41 40 25
42 0 36
42 1 44
42 2 23
42 3 22
42 4 17
42 5 39
42 6 22
42 7 9
42 8 5
42 9 35
42 10 17
42 11 9
42 12 1
42 13 26
42 14 32
42 15 31
42 16 37
42 17 12
42 18 26
42 19 39
42 20 28
42 21 23
42 22 44
42 23 2
42 24 18
42 25 4
42 26 19
42 27 11
42 28 35
42 29 37
42 30 1
42 31 21
42 32 7
42 33 32
42 34 15
42 35 45
42 36 7
42 37 42
42 38 9
42 39 44
42 40 6
42 41 22
43 0 3
43 1 37
43 2 38
43 3 12
43 4 22
43 5 25
43 6 33
43 7 42
43 8 3
43 9 23
43 10 28
43 11 38
43 12 31
43 13 34
43 14 10
43 15 43
43 16 11
43 17 19
43 18 17
43 19 26
43 20 29
43 21 30
43 22 28
43 23 7
43 24 8
43 25 38
43 26 16
43 27 19
43 28 31
43 29 15
43 30 41
43 31 5
43 32 25
43 33 39
43 34 22
43 35 17
43 36 1
43 37 29
43 38 15
43 39 44
43 40 1
43 41 4
43 42 31
44 0 4
44 1 25
44 2 23
44 3 40
44 4 33
44 5 24
44 6 36
44 7 3
44 8 27
44 9 17
44 10 33
44 11 18
44 12 36
44 13 36
44 14 2
44 15 12
44 16 21
44 17 35
44 18 40
44 19 16
44 20 25
44 21 17
44 22 12
44 23 32
44 24 6
44 25 5
44 26 6
44 27 16
44 28 1
44 29 41
44 30 28
44 31 35
44 32 31
44 33 42
44 34 43
44 35 28
44 36 19
44 37 38
44 38 41
44 39 8
44 40 32
44 41 3
44 42 34
44 43 35
45 0 42
45 1 20
45 2 17
45 3 42
45 4 37
45 5 3
45 6 25
45 7 38
45 8 22
45 9 14
45 10 44
45 11 38
45 12 45
45 13 20
45 14 15
45 15 28
45 16 24
45 17 45
45 18 21
45 19 22
45 20 33
45 21 13
45 22 26
45 23 45
45 24 41
45 25 14
45 26 44
45 27 25
45 28 1
45 29 42
45 30 27
45 31 41
45 32 35
45 33 28
45 34 27
45 35 38
45 36 2
45 37 26
45 38 35
45 39 5
45 40 25
45 41 45
45 42 11
45 43 28
45 44 35
46 0 13
46 1 39
46 2 24
46 3 44
46 4 7
46 5 24
46 6 26
46 7 14
46 8 39
46 9 1
46 10 32
46 11 6
46 12 11
46 13 2
46 14 8
46 15 3
46 16 45
46 17 39
46 18 20
46 19 26
46 20 32
46 21 25
46 22 23
46 23 30
46 24 18
46 25 27
46 26 32
46 27 23
46 28 28
46 29 31
46 30 32
46 31 34
46 32 9
46 33 33
46 34 40
46 35 45
46 36 19
46 37 19
46 38 35
46 39 22
46 40 14
46 41 2
46 42 8
46 43 10
46 44 40
46 45 5
47 0 39
47 1 45
47 2 42
47 3 12
47 4 8
47 5 39
47 6 25
47 7 18
47 8 11
47 9 18
47 10 17
47 11 39
47 12 35
47 13 17
47 14 26
47 15 23
47 16 21
47 17 43
47 18 27
47 19 25
47 20 18
47 21 22
47 22 31
47 23 28
47 24 13
47 25 26
47 26 12
47 27 39
47 28 8
47 29 29
47 30 42
47 31 17
47 32 39
47 33 29
47 34 29
47 35 28
47 36 31
47 37 24
47 38 12
47 39 31
47 40 29
47 41 9
47 42 33
47 43 18
47 44 32
47 45 28
47 46 2
48 0 30
48 1 22
48 2 6
48 3 22
48 4 30
48 5 19
48 6 41
48 7 17
48 8 26
48 9 27
48 10 10
48 11 9
48 12 8
48 13 24
48 14 18
48 15 12
48 16 14
48 17 27
48 18 37
48 19 38
48 20 4
48 21 45
48 22 1
48 23 34
48 24 28
48 25 19
48 26 20
48 27 32
48 28 4
48 29 32
48 30 14
48 31 35
48 32 42
48 33 17
48 34 6
48 35 2
48 36 13
48 37 27
48 38 11
48 39 3
48 40 43
48 41 2
48 42 28
48 43 40
48 44 17
48 45 36
48 46 5
48 47 28
49 0 37
49 1 11
49 2 16
49 3 38
49 4 13
49 5 14
49 6 22
49 7 19
49 8 3
49 9 43
49 10 7
49 11 14
49 12 5
49 13 25
49 14 9
49 15 31
49 16 6
49 17 14
49 18 38
49 19 16
49 20 35
49 21 23
49 22 14
49 23 7
49 24 31
49 25 20
49 26 29
49 27 6
49 28 33
49 29 39
49 30 11
49 31 10
49 32 19
49 33 17
49 34 14
49 35 8
49 36 21
49 37 23
49 38 43
49 39 38
49 40 38
49 41 43
49 42 3
49 43 39
49 44 3
49 45 6
49 46 45
49 47 20
49 48 14
50 0 34
50 1 22
50 2 44
50 3 26
50 4 15
50 5 40
50 6 25
50 7 11
50 8 37
50 9 43
50 10 21
50 11 20
50 12 28
50 13 13
50 14 19
50 15 21
50 16 33
50 17 3
50 18 6
50 19 30
50 20 42
50 21 20
50 22 18
50 23 37
50 24 8
50 25 39
50 26 32
50 27 5
50 28 12
50 29 19
50 30 11
50 31 38
50 32 2
50 33 33
50 34 32
50 35 26
50 36 23
50 37 35
50 38 13
50 39 30
50 40 3
50 41 10
50 42 33
50 43 41
50 44 28
50 45 35
50 46 18
50 47 7
50 48 33
50 49 28
51 0 28
51 1 39
51 2 2
51 3 6
51 4 42
51 5 2
51 6 45
51 7 12
51 8 40
51 9 7
51 10 8
51 11 21
51 12 18
51 13 26
51 14 7
51 15 39
51 16 6
51 17 8
51 18 16
51 19 5
51 20 7
51 21 37
51 22 23
51 23 13
51 24 36
51 25 38
51 26 35
51 27 26
51 28 34
51 29 35
51 30 12
51 31 25
51 32 28
51 33 7
51 34 45
51 35 25
51 36 18
51 37 45
51 38 7
51 39 10
51 40 33
51 41 45
51 42 15
51 43 19
51 44 1
51 45 2
51 46 11
51 47 40
51 48 18
51 49 19
51 50 35
52 0 16
52 1 20
52 2 25
52 3 29
52 4 13
52 5 8
52 6 18
52 7 42
52 8 1
52 9 11
52 10 40
52 11 11
52 12 18
52 13 45
52 14 40
52 15 15
52 16 32
52 17 24
52 18 28
52 19 14
52 20 3
52 21 27
52 22 20
52 23 42
52 24 5
52 25 28
52 26 27
52 27 18
52 28 34
52 29 31
52 30 11
52 31 42
52 32 26
52 33 24
52 34 34
52 35 35
52 36 34
52 37 30
52 38 16
52 39 27
52 40 1
52 41 16
52 42 18
52 43 13
52 44 25
52 45 4
52 46 36
52 47 30
52 48 13
52 49 23
52 50 26
52 51 38
53 0 30
53 1 21
53 2 25
53 3 31
53 4 4
53 5 38
53 6 25
53 7 11
53 8 23
53 9 5
53 10 23
53 11 36
53 12 25
53 13 25
53 14 27
53 15 31
53 16 42
53 17 5
53 18 15
53 19 26
53 20 11
53 21 1
53 22 38
53 23 19
53 24 32
53 25 13
53 26 10
53 27 14
53 28 31
53 29 28
53 30 15
53 31 14
53 32 26
53 33 27
53 34 33
53 35 18
53 36 32
53 37 4
53 38 16
53 39 27
53 40 17
53 41 7
53 42 11
53 43 41
53 44 43
53 45 2
53 46 30
53 47 10
53 48 33
53 49 40
53 50 35
53 51 27
53 52 11
54 0 13
54 1 17
54 2 30
54 3 33
54 4 41
54 5 8
54 6 44
54 7 15
54 8 39
54 9 18
54 10 14
54 11 9
54 12 11
54 13 38
54 14 29
54 15 14
54 16 7
54 17 31
54 18 5
54 19 2
54 20 21
54 21 37
54 22 1
54 23 20
54 24 31
54 25 7
54 26 2
54 27 4
54 28 33
54 29 14
54 30 1
54 31 32
54 32 39
54 33 2
54 34 35
54 35 2
54 36 27
54 37 28
54 38 13
54 39 33
54 40 29
54 41 18
54 42 43
54 43 42
54 44 10
54 45 22
54 46 20
54 47 18
54 48 40
54 49 35
54 50 44
54 51 29
54 52 20
54 53 1
55 0 30
55 1 41
55 2 36
55 3 41
55 4 11
55 5 42
55 6 13
55 7 35
55 8 20
55 9 23
55 10 42
55 11 41
55 12 36
55 13 30
55 14 7
55 15 22
55 16 31
55 17 29
55 18 21
55 19 12
55 20 32
55 21 17
55 22 29
55 23 3
55 24 42
55 25 34
55 26 42
55 27 15
55 28 26
55 29 4
55 30 42
55 31 12
55 32 43
55 33 25
55 34 7
55 35 33
55 36 43
55 37 22
55 38 34
55 39 19
55 40 17
55 41 41
55 42 30
55 43 10
55 44 36
55 45 16
55 46 7
55 47 42
55 48 37
55 49 13
55 50 22
55 51 18
55 52 38
55 53 18
55 54 25
56 0 43
56 1 43
56 2 30
56 3 10
56 4 39
56 5 5
56 6 4
56 7 39
56 8 33
56 9 6
56 10 4
56 11 24
56 12 20
56 13 5
56 14 16
56 15 30
56 16 3
56 17 43
56 18 32
56 19 45
56 20 25
56 21 24
56 22 40
56 23 23
56 24 22
56 25 18
56 26 19
56 27 13
56 28 36
56 29 14
56 30 15
56 31 26
56 32 32
56 33 33
56 34 1
56 35 36
56 36 37
56 37 9
56 38 20
56 39 40
56 40 24
56 41 9
56 42 40
56 43 20
56 44 1
56 45 45
56 46 31
56 47 17
56 48 9
56 49 22
56 50 19
56 51 9
56 52 43
56 53 45
56 54 1
56 55 14
57 0 6
57 1 34
57 2 25
57 3 21
57 4 14
57 5 9
57 6 9
57 7 23
57 8 4
57 9 28
57 10 20
57 11 14
57 12 30
57 13 32
57 14 1
57 15 5
57 16 40
57 17 33
57 18 7
57 19 34
57 20 40
57 21 44
57 22 15
57 23 39
57 24 12
57 25 9
57 26 16
57 27 25
57 28 5
57 29 10
57 30 38
57 31 14
57 32 25
57 33 23
57 34 3
57 35 13
57 36 28
57 37 23
57 38 33
57 39 6
57 40 18
57 41 29
57 42 23
57 43 39
57 44 4
57 45 9
57 46 4
57 47 28
57 48 8
57 49 17
57 50 2
57 51 14
57 52 39
57 53 5
57 54 1
57 55 14
57 56 30
58 0 36
58 1 41
58 2 2
58 3 24
58 4 37
58 5 37
58 6 28
58 7 11
58 8 11
58 9 20
58 10 17
58 11 25
58 12 36
58 13 31
58 14 31
58 15 23
58 16 7
58 17 42
58 18 21
58 19 9
58 20 35
58 21 16
58 22 11
58 23 13
58 24 24
58 25 35
58 26 28
58 27 24
58 28 37
58 29 22
58 30 35
58 31 45
58 32 13
58 33 25
58 34 43
58 35 31
58 36 31
58 37 44
58 38 21
58 39 30
58 40 8
58 41 14
58 42 15
58 43 8
58 44 35
58 45 38
58 46 31
58 47 3
58 48 28
58 49 27
58 50 39
58 51 27
58 52 26
58 53 8
58 54 10
58 55 27
58 56 4
58 57 44
59 0 26
59 1 10
59 2 26
59 3 29
59 4 37
59 5 12
59 6 20
59 7 9
59 8 26
59 9 4
59 10 30
59 11 1
59 12 32
59 13 19
59 14 34
59 15 30
59 16 19
59 17 42
59 18 2
59 19 12
59 20 22
59 21 28
59 22 6
59 23 36
59 24 4
59 25 26
59 26 24
59 27 33
59 28 34
59 29 8
59 30 2
59 31 27
59 32 1
59 33 14
59 34 23
59 35 35
59 36 10
59 37 39
59 38 27
59 39 4
59 40 40
59 41 28
59 42 10
59 43 26
59 44 27
59 45 16
59 46 17
59 47 2
59 48 11
59 49 38
59 50 32
59 51 20
59 52 43
59 53 36
59 54 5
59 55 19
59 56 6
59 57 13
59 58 45
60 0 4
60 1 35
60 2 45
60 3 4
60 4 11
60 5 19
60 6 11
60 7 3
60 8 26
60 9 28
60 10 42
60 11 10
60 12 10
60 13 3
60 14 23
60 15 45
60 16 13
60 17 17
60 18 38
60 19 45
60 20 29
60 21 15
60 22 29
60 23 45
60 24 18
60 25 4
60 26 21
60 27 2
60 28 1
60 29 28
60 30 40
60 31 18
60 32 20
60 33 23
60 34 2
60 35 16
60 36 12
60 37 24
60 38 37
60 39 32
60 40 19
60 41 5
60 42 17
60 43 29
60 44 15
60 45 16
60 46 26
60 47 28
60 48 42
60 49 43
60 50 35
60 51 39
60 52 21
60 53 37
60 54 41
60 55 45
60 56 40
60 57 35
60 58 40
60 59 43
61 0 3
61 1 23
61 2 30
61 3 41
61 4 14
61 5 8
61 6 21
61 7 4
61 8 39
61 9 4
61 10 10
61 11 25
61 12 24
61 13 45
61 14 4
61 15 29
61 16 3
61 17 24
61 18 19
61 19 10
61 20 32
61 21 25
61 22 39
61 23 2
61 24 24
61 25 9
61 26 13
61 27 12
61 28 26
61 29 17
61 30 40
61 31 14
61 32 45
61 33 28
61 34 11
61 35 4
61 36 24
61 37 32
61 38 34
61 39 7
61 40 18
61 41 19
61 42 13
61 43 45
61 44 1
61 45 15
61 46 4
61 47 5
61 48 11
61 49 32
61 50 22
61 51 7
61 52 11
61 53 17
61 54 30
61 55 9
61 56 45
61 57 37
61 58 26
61 59 21
61 60 6
62 0 17
62 1 41
62 2 19
62 3 21
62 4 21
62 5 34
62 6 23
62 7 26
62 8 12
62 9 41
62 10 39
62 11 17
62 12 5
62 13 27
62 14 19
62 15 7
62 16 32
62 17 28
62 18 36
62 19 41
62 20 39
62 21 14
62 22 31
62 23 38
62 24 13
62 25 39
62 26 9
62 27 13
62 28 28
62 29 41
62 30 3
62 31 18
62 32 3
62 33 16
62 34 13
62 35 20
62 36 32
62 37 39
62 38 23
62 39 29
62 40 1
62 41 24
62 42 26
62 43 31
62 44 30
62 45 28
62 46 35
62 47 20
62 48 36
62 49 19
62 50 39
62 51 22
62 52 27
62 53 25
62 54 25
62 55 29
62 56 18
62 57 15
62 58 34
62 59 14
62 60 39
62 61 41
